COLUMNS

passenger_count
pickup_ID
dropoff_ID
request_time_sec
pickup_district
dropoff_district
LDuals
IDuals
vehicle_ID
pick_position
drop_position

REQUESTS_INFO
1      421       59        32006     168       999       96        96        382       1         3         
1      739       530       31993     189       189       110       110       427       1         2         
2      840       746       32006     290       290       117       117       597       1         2         
1      456       391       32008     52        52        77        77        674       1         2         
1      772       766       31980     290       290       110       110       723       1         2         
2      814       196       31986     290       178       95        95        810       1         3         
3      534       314       31991     199       119       137       137       914       1         3         
3      886       1012      31990     290       84        146       146       956       1         2         
2      859       673       31984     290       189       114       114       1007      1         3         
2      718       116       31989     189       9         108       108       1022      1         2         
1      914       940       31981     291       291       116       116       1064      1         4         
3      859       673       31984     290       189       114       114       1096      1         2         
2      700       1066      32010     290       291       0         0         0         0         0         
2      197       375       32011     178       119       0         0         0         0         0         
2      408       501       32011     299       52        0         0         0         0         0         
1      758       526       32012     131       52        0         0         0         0         0         
1      905       838       32012     290       290       0         0         0         0         0         
1      505       648       32012     52        189       0         0         0         0         0         
4      350       627       32012     127       189       0         0         0         0         0         
1      170       125       32012     286       54        0         0         0         0         0         
1      663       692       32012     131       280       0         0         0         0         0         
1      628       675       32013     189       189       0         0         0         0         0         
1      1069      1101      32013     291       84        0         0         0         0         0         
1      1090      1188      32013     291       192       0         0         0         0         0         
2      618       275       32013     131       87        0         0         0         0         0         
1      980       827       32014     291       291       0         0         0         0         0         
1      783       937       32014     50        291       0         0         0         0         0         
1      1195      1343      32015     129       129       0         0         0         0         0         
3      436       529       32015     100       189       0         0         0         0         0         
2      436       529       32015     100       189       0         0         0         0         0         
1      175       372       32015     266       119       0         0         0         0         0         
1      399       332       32015     168       87        0         0         0         0         0         
3      349       314       32016     127       119       0         0         0         0         0         
2      918       582       32016     50        189       0         0         0         0         0         
1      314       487       32016     119       199       0         0         0         0         0         
1      528       716       32016     52        189       0         0         0         0         0         
3      1043      963       32017     291       50        0         0         0         0         0         
1      1530      1263      32017     296       192       0         0         0         0         0         
2      1043      963       32017     291       50        0         0         0         0         0         
3      503       692       32018     52        280       0         0         0         0         0         
1      392       481       32018     52        189       0         0         0         0         0         
2      896       962       32018     291       291       0         0         0         0         0         
1      700       742       32019     290       290       0         0         0         0         0         
2      828       732       32019     291       131       0         0         0         0         0         
1      1046      1263      32020     291       192       0         0         0         0         0         
1      462       647       32020     189       280       0         0         0         0         0         
1      914       526       32021     291       52        0         0         0         0         0         
3      1168      1226      32021     291       192       0         0         0         0         0         
2      1168      1226      32021     291       192       0         0         0         0         0         
2      731       616       32022     131       131       0         0         0         0         0         
1      926       813       32022     290       290       0         0         0         0         0         
3      549       619       32022     52        131       0         0         0         0         0         
1      644       579       32022     131       189       0         0         0         0         0         
2      191       228       32022     266       266       0         0         0         0         0         
1      436       578       32022     100       189       0         0         0         0         0         
1      621       116       32022     280       9         0         0         0         0         0         
1      410       545       32022     52        52        0         0         0         0         0         
1      676       465       32023     189       199       0         0         0         0         0         
1      598       10        32023     189       98        0         0         0         0         0         
1      1044      1003      32024     291       291       0         0         0         0         0         
1      298       20        32024     277       98        0         0         0         0         0         
1      662       479       32024     131       52        0         0         0         0         0         
1      936       350       32024     291       127       0         0         0         0         0         
2      767       584       32024     290       189       0         0         0         0         0         
3      767       584       32024     290       189       0         0         0         0         0         
2      1044      914       32024     291       291       0         0         0         0         0         
1      816       1015      32025     290       84        0         0         0         0         0         
2      1089      1171      32026     291       192       0         0         0         0         0         
1      731       597       32026     131       131       0         0         0         0         0         
1      883       768       32026     290       290       0         0         0         0         0         
2      710       526       32027     131       52        0         0         0         0         0         
1      884       703       32027     290       290       0         0         0         0         0         
2      580       441       32027     189       168       0         0         0         0         0         
1      252       66        32027     206       98        0         0         0         0         0         
1      599       1175      32028     280       129       0         0         0         0         0         
2      881       923       32029     290       290       0         0         0         0         0         
1      210       117       32029     266       286       0         0         0         0         0         
1      482       369       32030     189       52        0         0         0         0         0         
2      782       560       32030     291       189       0         0         0         0         0         
1      1177      1252      32030     84        129       0         0         0         0         0         
3      675       557       32030     189       189       0         0         0         0         0         
1      906       969       32031     290       290       0         0         0         0         0         
1      549       731       32032     52        131       0         0         0         0         0         
1      232       227       32032     266       266       0         0         0         0         0         
1      1248      1248      32032     129       129       0         0         0         0         0         
1      1076      1037      32032     84        84        0         0         0         0         0         
1      883       697       32032     290       189       0         0         0         0         0         
1      594       600       32033     131       280       0         0         0         0         0         
2      852       1026      32033     291       291       0         0         0         0         0         
3      937       152       32033     291       9         0         0         0         0         0         
1      467       64        32034     999       98        0         0         0         0         0         
2      1001      792       32034     291       290       0         0         0         0         0         
1      529       556       32035     189       199       0         0         0         0         0         
1      545       412       32035     52        52        0         0         0         0         0         
2      568       1308      32036     52        129       0         0         0         0         0         
2      317       481       32036     277       189       0         0         0         0         0         
1      597       572       32037     131       131       0         0         0         0         0         
1      556       596       32037     199       131       0         0         0         0         0         
1      817       674       32037     290       189       0         0         0         0         0         
3      461       875       32038     189       291       0         0         0         0         0         
1      1036      415       32038     84        100       0         0         0         0         0         
1      194       289       32038     207       127       0         0         0         0         0         
1      815       905       32038     290       290       0         0         0         0         0         
4      254       268       32039     87        299       0         0         0         0         0         
1      413       628       32039     52        189       0         0         0         0         0         
1      314       399       32039     119       168       0         0         0         0         0         
